1652272
12, 11, 31, 16, 24, 61, 3, 42, 56, 40, 5, 60, 29, 25, 30, 41, 54, 27, 9, 58, 15, 8, 36, 28, 68, 35, 51, 39, 62, 37, 53, 44, 14, 52, 33, 57, 18, 10, 22, 43, 46, 34, 55, 26, 66, 7, 38, 21, 63, 48, 4, 20, 47, 17, 2, 23, 67, 64, 49, 19, 13, 65, 45, 59, 50, 32, 1, 6
